\ Model size_75_75_3
\ LP format - for model browsing. Use MPS format to capture full model detail.
Minimize
  453 z_0_Z01JJ01 + 453 z_1_Z02JJ01 + 453 z_2_Z03JJ01 + 453 z_3_Z04JJ01
   + 453 z_4_Z05JJ01 + 453 z_5_Z06JJ01 + 453 z_6_Z07JJ01 + 453 z_7_Z08JJ01
   + 453 z_8_Z09JJ01 + 453 z_9_Z10JJ01 + 748 x_10_Y01JJ01
   + 758.4 x_11_Y02JJ01 + 768.8 x_12_Y03JJ01 + 779.2 x_13_Y04JJ01
   + 789.6 x_14_Y05JJ01 + 800 x_15_Y06JJ01 + 810.4 x_16_Y07JJ01
   + 820.8 x_17_Y08JJ01 + 831.2 x_18_Y09JJ01 + 841.6 x_19_Y10JJ01
   + 8 x_22_X020101 + 8 x_24_X030201 + 8 x_25_X030101 + 8 x_27_X040301
   + 8 x_28_X040201 + 8 x_29_X040101 + 8 x_31_X050401 + 8 x_32_X050301
   + 8 x_33_X050201 + 8 x_34_X050101 + 8 x_36_X060501 + 8 x_37_X060401
   + 8 x_38_X060301 + 8 x_39_X060201 + 8 x_40_X060101 + 8 x_42_X070601
   + 8 x_43_X070501 + 8 x_44_X070401 + 8 x_45_X070301 + 8 x_46_X070201
   + 8 x_47_X070101 + 8 x_49_X080701 + 8 x_50_X080601 + 8 x_51_X080501
   + 8 x_52_X080401 + 8 x_53_X080301 + 8 x_54_X080201 + 8 x_55_X080101
   + 8 x_57_X090801 + 8 x_58_X090701 + 8 x_59_X090601 + 8 x_60_X090501
   + 8 x_61_X090401 + 8 x_62_X090301 + 8 x_63_X090201 + 8 x_64_X090101
   + 8 x_66_X100901 + 8 x_67_X100801 + 8 x_68_X100701 + 8 x_69_X100601
   + 8 x_70_X100501 + 8 x_71_X100401 + 8 x_72_X100301 + 8 x_73_X100201
   + 8 x_74_X100101 + 150.999849 z_0_s0_Z01JJ02 + 150.999849 z_0_s1_Z01JJ02
   + 150.999849 z_0_s2_Z01JJ02 + 150.999849 z_1_s0_Z02JJ02
   + 150.999849 z_1_s1_Z02JJ02 + 150.999849 z_1_s2_Z02JJ02
   + 150.999849 z_2_s0_Z03JJ02 + 150.999849 z_2_s1_Z03JJ02
   + 150.999849 z_2_s2_Z03JJ02 + 150.999849 z_3_s0_Z04JJ02
   + 150.999849 z_3_s1_Z04JJ02 + 150.999849 z_3_s2_Z04JJ02
   + 150.999849 z_4_s0_Z05JJ02 + 150.999849 z_4_s1_Z05JJ02
   + 150.999849 z_4_s2_Z05JJ02 + 150.999849 z_5_s0_Z06JJ02
   + 150.999849 z_5_s1_Z06JJ02 + 150.999849 z_5_s2_Z06JJ02
   + 150.999849 z_6_s0_Z07JJ02 + 150.999849 z_6_s1_Z07JJ02
   + 150.999849 z_6_s2_Z07JJ02 + 150.999849 z_7_s0_Z08JJ02
   + 150.999849 z_7_s1_Z08JJ02 + 150.999849 z_7_s2_Z08JJ02
   + 150.999849 z_8_s0_Z09JJ02 + 150.999849 z_8_s1_Z09JJ02
   + 150.999849 z_8_s2_Z09JJ02 + 150.999849 z_9_s0_Z10JJ02
   + 150.999849 z_9_s1_Z10JJ02 + 150.999849 z_9_s2_Z10JJ02
   + 249.333084 y_10_s0_Y01JJ02 + 249.333084 y_10_s1_Y01JJ02
   + 249.333084 y_10_s2_Y01JJ02 + 252.7997472 y_11_s0_Y02JJ02
   + 252.7997472 y_11_s1_Y02JJ02 + 252.7997472 y_11_s2_Y02JJ02
   + 256.2664104 y_12_s0_Y03JJ02 + 256.2664104 y_12_s1_Y03JJ02
   + 256.2664104 y_12_s2_Y03JJ02 + 259.7330736 y_13_s0_Y04JJ02
   + 259.7330736 y_13_s1_Y04JJ02 + 259.7330736 y_13_s2_Y04JJ02
   + 263.1997368 y_14_s0_Y05JJ02 + 263.1997368 y_14_s1_Y05JJ02
   + 263.1997368 y_14_s2_Y05JJ02 + 266.6664 y_15_s0_Y06JJ02
   + 266.6664 y_15_s1_Y06JJ02 + 266.6664 y_15_s2_Y06JJ02
   + 270.1330632 y_16_s0_Y07JJ02 + 270.1330632 y_16_s1_Y07JJ02
   + 270.1330632 y_16_s2_Y07JJ02 + 273.5997264 y_17_s0_Y08JJ02
   + 273.5997264 y_17_s1_Y08JJ02 + 273.5997264 y_17_s2_Y08JJ02
   + 277.0663896 y_18_s0_Y09JJ02 + 277.0663896 y_18_s1_Y09JJ02
   + 277.0663896 y_18_s2_Y09JJ02 + 280.5330528 y_19_s0_Y10JJ02
   + 280.5330528 y_19_s1_Y10JJ02 + 280.5330528 y_19_s2_Y10JJ02
   + 2.666664 y_22_s0_X020102 + 2.666664 y_22_s1_X020102
   + 2.666664 y_22_s2_X020102 + 2.666664 y_24_s0_X030202
   + 2.666664 y_24_s1_X030202 + 2.666664 y_24_s2_X030202
   + 2.666664 y_25_s0_X030102 + 2.666664 y_25_s1_X030102
   + 2.666664 y_25_s2_X030102 + 2.666664 y_27_s0_X040302
   + 2.666664 y_27_s1_X040302 + 2.666664 y_27_s2_X040302
   + 2.666664 y_28_s0_X040202 + 2.666664 y_28_s1_X040202
   + 2.666664 y_28_s2_X040202 + 2.666664 y_29_s0_X040102
   + 2.666664 y_29_s1_X040102 + 2.666664 y_29_s2_X040102
   + 2.666664 y_31_s0_X050402 + 2.666664 y_31_s1_X050402
   + 2.666664 y_31_s2_X050402 + 2.666664 y_32_s0_X050302
   + 2.666664 y_32_s1_X050302 + 2.666664 y_32_s2_X050302
   + 2.666664 y_33_s0_X050202 + 2.666664 y_33_s1_X050202
   + 2.666664 y_33_s2_X050202 + 2.666664 y_34_s0_X050102
   + 2.666664 y_34_s1_X050102 + 2.666664 y_34_s2_X050102
   + 2.666664 y_36_s0_X060502 + 2.666664 y_36_s1_X060502
   + 2.666664 y_36_s2_X060502 + 2.666664 y_37_s0_X060402
   + 2.666664 y_37_s1_X060402 + 2.666664 y_37_s2_X060402
   + 2.666664 y_38_s0_X060302 + 2.666664 y_38_s1_X060302
   + 2.666664 y_38_s2_X060302 + 2.666664 y_39_s0_X060202
   + 2.666664 y_39_s1_X060202 + 2.666664 y_39_s2_X060202
   + 2.666664 y_40_s0_X060102 + 2.666664 y_40_s1_X060102
   + 2.666664 y_40_s2_X060102 + 2.666664 y_42_s0_X070602
   + 2.666664 y_42_s1_X070602 + 2.666664 y_42_s2_X070602
   + 2.666664 y_43_s0_X070502 + 2.666664 y_43_s1_X070502
   + 2.666664 y_43_s2_X070502 + 2.666664 y_44_s0_X070402
   + 2.666664 y_44_s1_X070402 + 2.666664 y_44_s2_X070402
   + 2.666664 y_45_s0_X070302 + 2.666664 y_45_s1_X070302
   + 2.666664 y_45_s2_X070302 + 2.666664 y_46_s0_X070202
   + 2.666664 y_46_s1_X070202 + 2.666664 y_46_s2_X070202
   + 2.666664 y_47_s0_X070102 + 2.666664 y_47_s1_X070102
   + 2.666664 y_47_s2_X070102 + 2.666664 y_49_s0_X080702
   + 2.666664 y_49_s1_X080702 + 2.666664 y_49_s2_X080702
   + 2.666664 y_50_s0_X080602 + 2.666664 y_50_s1_X080602
   + 2.666664 y_50_s2_X080602 + 2.666664 y_51_s0_X080502
   + 2.666664 y_51_s1_X080502 + 2.666664 y_51_s2_X080502
   + 2.666664 y_52_s0_X080402 + 2.666664 y_52_s1_X080402
   + 2.666664 y_52_s2_X080402 + 2.666664 y_53_s0_X080302
   + 2.666664 y_53_s1_X080302 + 2.666664 y_53_s2_X080302
   + 2.666664 y_54_s0_X080202 + 2.666664 y_54_s1_X080202
   + 2.666664 y_54_s2_X080202 + 2.666664 y_55_s0_X080102
   + 2.666664 y_55_s1_X080102 + 2.666664 y_55_s2_X080102
   + 2.666664 y_57_s0_X090802 + 2.666664 y_57_s1_X090802
   + 2.666664 y_57_s2_X090802 + 2.666664 y_58_s0_X090702
   + 2.666664 y_58_s1_X090702 + 2.666664 y_58_s2_X090702
   + 2.666664 y_59_s0_X090602 + 2.666664 y_59_s1_X090602
   + 2.666664 y_59_s2_X090602 + 2.666664 y_60_s0_X090502
   + 2.666664 y_60_s1_X090502 + 2.666664 y_60_s2_X090502
   + 2.666664 y_61_s0_X090402 + 2.666664 y_61_s1_X090402
   + 2.666664 y_61_s2_X090402 + 2.666664 y_62_s0_X090302
   + 2.666664 y_62_s1_X090302 + 2.666664 y_62_s2_X090302
   + 2.666664 y_63_s0_X090202 + 2.666664 y_63_s1_X090202
   + 2.666664 y_63_s2_X090202 + 2.666664 y_64_s0_X090102
   + 2.666664 y_64_s1_X090102 + 2.666664 y_64_s2_X090102
   + 2.666664 y_66_s0_X100902 + 2.666664 y_66_s1_X100902
   + 2.666664 y_66_s2_X100902 + 2.666664 y_67_s0_X100802
   + 2.666664 y_67_s1_X100802 + 2.666664 y_67_s2_X100802
   + 2.666664 y_68_s0_X100702 + 2.666664 y_68_s1_X100702
   + 2.666664 y_68_s2_X100702 + 2.666664 y_69_s0_X100602
   + 2.666664 y_69_s1_X100602 + 2.666664 y_69_s2_X100602
   + 2.666664 y_70_s0_X100502 + 2.666664 y_70_s1_X100502
   + 2.666664 y_70_s2_X100502 + 2.666664 y_71_s0_X100402
   + 2.666664 y_71_s1_X100402 + 2.666664 y_71_s2_X100402
   + 2.666664 y_72_s0_X100302 + 2.666664 y_72_s1_X100302
   + 2.666664 y_72_s2_X100302 + 2.666664 y_73_s0_X100202
   + 2.666664 y_73_s1_X100202 + 2.666664 y_73_s2_X100202
   + 2.666664 y_74_s0_X100102 + 2.666664 y_74_s1_X100102
   + 2.666664 y_74_s2_X100102
Subject To
 cons_c0_s0: x_20_X010101 + x_22_X020101 + x_25_X030101 + x_29_X040101
   + x_34_X050101 + x_40_X060101 + x_47_X070101 + x_55_X080101
   + x_64_X090101 + x_74_X100101 >= 2.5
 cons_c0_s1: x_20_X010101 + x_22_X020101 + x_25_X030101 + x_29_X040101
   + x_34_X050101 + x_40_X060101 + x_47_X070101 + x_55_X080101
   + x_64_X090101 + x_74_X100101 >= 2.5
 cons_c0_s2: x_20_X010101 + x_22_X020101 + x_25_X030101 + x_29_X040101
   + x_34_X050101 + x_40_X060101 + x_47_X070101 + x_55_X080101
   + x_64_X090101 + x_74_X100101 >= 2.5
 cons_c1_s0: x_21_X020201 + x_24_X030201 + x_28_X040201 + x_33_X050201
   + x_39_X060201 + x_46_X070201 + x_54_X080201 + x_63_X090201
   + x_73_X100201 >= 7.5
 cons_c1_s1: x_21_X020201 + x_24_X030201 + x_28_X040201 + x_33_X050201
   + x_39_X060201 + x_46_X070201 + x_54_X080201 + x_63_X090201
   + x_73_X100201 >= 7.5
 cons_c1_s2: x_21_X020201 + x_24_X030201 + x_28_X040201 + x_33_X050201
   + x_39_X060201 + x_46_X070201 + x_54_X080201 + x_63_X090201
   + x_73_X100201 >= 7.5
 cons_c2_s0: x_23_X030301 + x_27_X040301 + x_32_X050301 + x_38_X060301
   + x_45_X070301 + x_53_X080301 + x_62_X090301 + x_72_X100301 >= 12.5
 cons_c2_s1: x_23_X030301 + x_27_X040301 + x_32_X050301 + x_38_X060301
   + x_45_X070301 + x_53_X080301 + x_62_X090301 + x_72_X100301 >= 12.5
 cons_c2_s2: x_23_X030301 + x_27_X040301 + x_32_X050301 + x_38_X060301
   + x_45_X070301 + x_53_X080301 + x_62_X090301 + x_72_X100301 >= 12.5
 cons_c3_s0: x_26_X040401 + x_31_X050401 + x_37_X060401 + x_44_X070401
   + x_52_X080401 + x_61_X090401 + x_71_X100401 >= 10
 cons_c3_s1: x_26_X040401 + x_31_X050401 + x_37_X060401 + x_44_X070401
   + x_52_X080401 + x_61_X090401 + x_71_X100401 >= 10
 cons_c3_s2: x_26_X040401 + x_31_X050401 + x_37_X060401 + x_44_X070401
   + x_52_X080401 + x_61_X090401 + x_71_X100401 >= 10
 cons_c4_s0: x_30_X050501 + x_36_X060501 + x_43_X070501 + x_51_X080501
   + x_60_X090501 + x_70_X100501 >= 35
 cons_c4_s1: x_30_X050501 + x_36_X060501 + x_43_X070501 + x_51_X080501
   + x_60_X090501 + x_70_X100501 >= 35
 cons_c4_s2: x_30_X050501 + x_36_X060501 + x_43_X070501 + x_51_X080501
   + x_60_X090501 + x_70_X100501 >= 35
 cons_c5_s0: x_35_X060601 + x_42_X070601 + x_50_X080601 + x_59_X090601
   + x_69_X100601 >= 25
 cons_c5_s1: x_35_X060601 + x_42_X070601 + x_50_X080601 + x_59_X090601
   + x_69_X100601 >= 25
 cons_c5_s2: x_35_X060601 + x_42_X070601 + x_50_X080601 + x_59_X090601
   + x_69_X100601 >= 25
 cons_c6_s0: x_41_X070701 + x_49_X080701 + x_58_X090701 + x_68_X100701
   >= 15
 cons_c6_s1: x_41_X070701 + x_49_X080701 + x_58_X090701 + x_68_X100701
   >= 15
 cons_c6_s2: x_41_X070701 + x_49_X080701 + x_58_X090701 + x_68_X100701
   >= 15
 cons_c7_s0: x_48_X080801 + x_57_X090801 + x_67_X100801 >= 12.5
 cons_c7_s1: x_48_X080801 + x_57_X090801 + x_67_X100801 >= 12.5
 cons_c7_s2: x_48_X080801 + x_57_X090801 + x_67_X100801 >= 12.5
 cons_c8_s0: x_56_X090901 + x_66_X100901 >= 12.5
 cons_c8_s1: x_56_X090901 + x_66_X100901 >= 12.5
 cons_c8_s2: x_56_X090901 + x_66_X100901 >= 12.5
 cons_c9_s0: x_65_X101001 >= 5
 cons_c9_s1: x_65_X101001 >= 5
 cons_c9_s2: x_65_X101001 >= 5
 cons_c10_s0: - x_10_Y01JJ01 + x_20_X010101 <= 0
 cons_c10_s1: - x_10_Y01JJ01 + x_20_X010101 <= 0
 cons_c10_s2: - x_10_Y01JJ01 + x_20_X010101 <= 0
 cons_c11_s0: - x_11_Y02JJ01 + x_21_X020201 + x_22_X020101 <= 0
 cons_c11_s1: - x_11_Y02JJ01 + x_21_X020201 + x_22_X020101 <= 0
 cons_c11_s2: - x_11_Y02JJ01 + x_21_X020201 + x_22_X020101 <= 0
 cons_c12_s0: - x_12_Y03JJ01 + x_23_X030301 + x_24_X030201 + x_25_X030101
   <= 0
 cons_c12_s1: - x_12_Y03JJ01 + x_23_X030301 + x_24_X030201 + x_25_X030101
   <= 0
 cons_c12_s2: - x_12_Y03JJ01 + x_23_X030301 + x_24_X030201 + x_25_X030101
   <= 0
 cons_c13_s0: - x_13_Y04JJ01 + x_26_X040401 + x_27_X040301 + x_28_X040201
   + x_29_X040101 <= 0
 cons_c13_s1: - x_13_Y04JJ01 + x_26_X040401 + x_27_X040301 + x_28_X040201
   + x_29_X040101 <= 0
 cons_c13_s2: - x_13_Y04JJ01 + x_26_X040401 + x_27_X040301 + x_28_X040201
   + x_29_X040101 <= 0
 cons_c14_s0: - x_14_Y05JJ01 + x_30_X050501 + x_31_X050401 + x_32_X050301
   + x_33_X050201 + x_34_X050101 <= 0
 cons_c14_s1: - x_14_Y05JJ01 + x_30_X050501 + x_31_X050401 + x_32_X050301
   + x_33_X050201 + x_34_X050101 <= 0
 cons_c14_s2: - x_14_Y05JJ01 + x_30_X050501 + x_31_X050401 + x_32_X050301
   + x_33_X050201 + x_34_X050101 <= 0
 cons_c15_s0: - x_15_Y06JJ01 + x_35_X060601 + x_36_X060501 + x_37_X060401
   + x_38_X060301 + x_39_X060201 + x_40_X060101 <= 0
 cons_c15_s1: - x_15_Y06JJ01 + x_35_X060601 + x_36_X060501 + x_37_X060401
   + x_38_X060301 + x_39_X060201 + x_40_X060101 <= 0
 cons_c15_s2: - x_15_Y06JJ01 + x_35_X060601 + x_36_X060501 + x_37_X060401
   + x_38_X060301 + x_39_X060201 + x_40_X060101 <= 0
 cons_c16_s0: - x_16_Y07JJ01 + x_41_X070701 + x_42_X070601 + x_43_X070501
   + x_44_X070401 + x_45_X070301 + x_46_X070201 + x_47_X070101 <= 0
 cons_c16_s1: - x_16_Y07JJ01 + x_41_X070701 + x_42_X070601 + x_43_X070501
   + x_44_X070401 + x_45_X070301 + x_46_X070201 + x_47_X070101 <= 0
 cons_c16_s2: - x_16_Y07JJ01 + x_41_X070701 + x_42_X070601 + x_43_X070501
   + x_44_X070401 + x_45_X070301 + x_46_X070201 + x_47_X070101 <= 0
 cons_c17_s0: - x_17_Y08JJ01 + x_48_X080801 + x_49_X080701 + x_50_X080601
   + x_51_X080501 + x_52_X080401 + x_53_X080301 + x_54_X080201
   + x_55_X080101 <= 0
 cons_c17_s1: - x_17_Y08JJ01 + x_48_X080801 + x_49_X080701 + x_50_X080601
   + x_51_X080501 + x_52_X080401 + x_53_X080301 + x_54_X080201
   + x_55_X080101 <= 0
 cons_c17_s2: - x_17_Y08JJ01 + x_48_X080801 + x_49_X080701 + x_50_X080601
   + x_51_X080501 + x_52_X080401 + x_53_X080301 + x_54_X080201
   + x_55_X080101 <= 0
 cons_c18_s0: - x_18_Y09JJ01 + x_56_X090901 + x_57_X090801 + x_58_X090701
   + x_59_X090601 + x_60_X090501 + x_61_X090401 + x_62_X090301
   + x_63_X090201 + x_64_X090101 <= 0
 cons_c18_s1: - x_18_Y09JJ01 + x_56_X090901 + x_57_X090801 + x_58_X090701
   + x_59_X090601 + x_60_X090501 + x_61_X090401 + x_62_X090301
   + x_63_X090201 + x_64_X090101 <= 0
 cons_c18_s2: - x_18_Y09JJ01 + x_56_X090901 + x_57_X090801 + x_58_X090701
   + x_59_X090601 + x_60_X090501 + x_61_X090401 + x_62_X090301
   + x_63_X090201 + x_64_X090101 <= 0
 cons_c19_s0: - x_19_Y10JJ01 + x_65_X101001 + x_66_X100901 + x_67_X100801
   + x_68_X100701 + x_69_X100601 + x_70_X100501 + x_71_X100401
   + x_72_X100301 + x_73_X100201 + x_74_X100101 <= 0
 cons_c19_s1: - x_19_Y10JJ01 + x_65_X101001 + x_66_X100901 + x_67_X100801
   + x_68_X100701 + x_69_X100601 + x_70_X100501 + x_71_X100401
   + x_72_X100301 + x_73_X100201 + x_74_X100101 <= 0
 cons_c19_s2: - x_19_Y10JJ01 + x_65_X101001 + x_66_X100901 + x_67_X100801
   + x_68_X100701 + x_69_X100601 + x_70_X100501 + x_71_X100401
   + x_72_X100301 + x_73_X100201 + x_74_X100101 <= 0
 cons_c20_s0: - 201 z_0_Z01JJ01 + x_10_Y01JJ01 <= 0
 cons_c20_s1: - 201 z_0_Z01JJ01 + x_10_Y01JJ01 <= 0
 cons_c20_s2: - 201 z_0_Z01JJ01 + x_10_Y01JJ01 <= 0
 cons_c21_s0: - 201 z_1_Z02JJ01 + x_11_Y02JJ01 <= 0
 cons_c21_s1: - 201 z_1_Z02JJ01 + x_11_Y02JJ01 <= 0
 cons_c21_s2: - 201 z_1_Z02JJ01 + x_11_Y02JJ01 <= 0
 cons_c22_s0: - 201 z_2_Z03JJ01 + x_12_Y03JJ01 <= 0
 cons_c22_s1: - 201 z_2_Z03JJ01 + x_12_Y03JJ01 <= 0
 cons_c22_s2: - 201 z_2_Z03JJ01 + x_12_Y03JJ01 <= 0
 cons_c23_s0: - 201 z_3_Z04JJ01 + x_13_Y04JJ01 <= 0
 cons_c23_s1: - 201 z_3_Z04JJ01 + x_13_Y04JJ01 <= 0
 cons_c23_s2: - 201 z_3_Z04JJ01 + x_13_Y04JJ01 <= 0
 cons_c24_s0: - 201 z_4_Z05JJ01 + x_14_Y05JJ01 <= 0
 cons_c24_s1: - 201 z_4_Z05JJ01 + x_14_Y05JJ01 <= 0
 cons_c24_s2: - 201 z_4_Z05JJ01 + x_14_Y05JJ01 <= 0
 cons_c25_s0: - 201 z_5_Z06JJ01 + x_15_Y06JJ01 <= 0
 cons_c25_s1: - 201 z_5_Z06JJ01 + x_15_Y06JJ01 <= 0
 cons_c25_s2: - 201 z_5_Z06JJ01 + x_15_Y06JJ01 <= 0
 cons_c26_s0: - 201 z_6_Z07JJ01 + x_16_Y07JJ01 <= 0
 cons_c26_s1: - 201 z_6_Z07JJ01 + x_16_Y07JJ01 <= 0
 cons_c26_s2: - 201 z_6_Z07JJ01 + x_16_Y07JJ01 <= 0
 cons_c27_s0: - 201 z_7_Z08JJ01 + x_17_Y08JJ01 <= 0
 cons_c27_s1: - 201 z_7_Z08JJ01 + x_17_Y08JJ01 <= 0
 cons_c27_s2: - 201 z_7_Z08JJ01 + x_17_Y08JJ01 <= 0
 cons_c28_s0: - 201 z_8_Z09JJ01 + x_18_Y09JJ01 <= 0
 cons_c28_s1: - 201 z_8_Z09JJ01 + x_18_Y09JJ01 <= 0
 cons_c28_s2: - 201 z_8_Z09JJ01 + x_18_Y09JJ01 <= 0
 cons_c29_s0: - 201 z_9_Z10JJ01 + x_19_Y10JJ01 <= 0
 cons_c29_s1: - 201 z_9_Z10JJ01 + x_19_Y10JJ01 <= 0
 cons_c29_s2: - 201 z_9_Z10JJ01 + x_19_Y10JJ01 <= 0
 cons_c30_s0: x_10_Y01JJ01 + x_11_Y02JJ01 + x_12_Y03JJ01 + x_13_Y04JJ01
   + x_14_Y05JJ01 + x_15_Y06JJ01 + x_16_Y07JJ01 + x_17_Y08JJ01
   + x_18_Y09JJ01 + x_19_Y10JJ01 <= 200
 cons_c30_s1: x_10_Y01JJ01 + x_11_Y02JJ01 + x_12_Y03JJ01 + x_13_Y04JJ01
   + x_14_Y05JJ01 + x_15_Y06JJ01 + x_16_Y07JJ01 + x_17_Y08JJ01
   + x_18_Y09JJ01 + x_19_Y10JJ01 <= 200
 cons_c30_s2: x_10_Y01JJ01 + x_11_Y02JJ01 + x_12_Y03JJ01 + x_13_Y04JJ01
   + x_14_Y05JJ01 + x_15_Y06JJ01 + x_16_Y07JJ01 + x_17_Y08JJ01
   + x_18_Y09JJ01 + x_19_Y10JJ01 <= 200
 cons_c31_s0: y_20_s0_X010102 + y_22_s0_X020102 + y_25_s0_X030102
   + y_29_s0_X040102 + y_34_s0_X050102 + y_40_s0_X060102 + y_47_s0_X070102
   + y_55_s0_X080102 + y_64_s0_X090102 + y_74_s0_X100102 >= 1.75
 cons_c31_s1: y_20_s1_X010102 + y_22_s1_X020102 + y_25_s1_X030102
   + y_29_s1_X040102 + y_34_s1_X050102 + y_40_s1_X060102 + y_47_s1_X070102
   + y_55_s1_X080102 + y_64_s1_X090102 + y_74_s1_X100102 >= 2.5
 cons_c31_s2: y_20_s2_X010102 + y_22_s2_X020102 + y_25_s2_X030102
   + y_29_s2_X040102 + y_34_s2_X050102 + y_40_s2_X060102 + y_47_s2_X070102
   + y_55_s2_X080102 + y_64_s2_X090102 + y_74_s2_X100102 >= 3.25
 cons_c32_s0: y_21_s0_X020202 + y_24_s0_X030202 + y_28_s0_X040202
   + y_33_s0_X050202 + y_39_s0_X060202 + y_46_s0_X070202 + y_54_s0_X080202
   + y_63_s0_X090202 + y_73_s0_X100202 >= 5.25
 cons_c32_s1: y_21_s1_X020202 + y_24_s1_X030202 + y_28_s1_X040202
   + y_33_s1_X050202 + y_39_s1_X060202 + y_46_s1_X070202 + y_54_s1_X080202
   + y_63_s1_X090202 + y_73_s1_X100202 >= 7.5
 cons_c32_s2: y_21_s2_X020202 + y_24_s2_X030202 + y_28_s2_X040202
   + y_33_s2_X050202 + y_39_s2_X060202 + y_46_s2_X070202 + y_54_s2_X080202
   + y_63_s2_X090202 + y_73_s2_X100202 >= 9.75
 cons_c33_s0: y_23_s0_X030302 + y_27_s0_X040302 + y_32_s0_X050302
   + y_38_s0_X060302 + y_45_s0_X070302 + y_53_s0_X080302 + y_62_s0_X090302
   + y_72_s0_X100302 >= 8.75
 cons_c33_s1: y_23_s1_X030302 + y_27_s1_X040302 + y_32_s1_X050302
   + y_38_s1_X060302 + y_45_s1_X070302 + y_53_s1_X080302 + y_62_s1_X090302
   + y_72_s1_X100302 >= 12.5
 cons_c33_s2: y_23_s2_X030302 + y_27_s2_X040302 + y_32_s2_X050302
   + y_38_s2_X060302 + y_45_s2_X070302 + y_53_s2_X080302 + y_62_s2_X090302
   + y_72_s2_X100302 >= 16.25
 cons_c34_s0: y_26_s0_X040402 + y_31_s0_X050402 + y_37_s0_X060402
   + y_44_s0_X070402 + y_52_s0_X080402 + y_61_s0_X090402 + y_71_s0_X100402
   >= 7
 cons_c34_s1: y_26_s1_X040402 + y_31_s1_X050402 + y_37_s1_X060402
   + y_44_s1_X070402 + y_52_s1_X080402 + y_61_s1_X090402 + y_71_s1_X100402
   >= 10
 cons_c34_s2: y_26_s2_X040402 + y_31_s2_X050402 + y_37_s2_X060402
   + y_44_s2_X070402 + y_52_s2_X080402 + y_61_s2_X090402 + y_71_s2_X100402
   >= 13
 cons_c35_s0: y_30_s0_X050502 + y_36_s0_X060502 + y_43_s0_X070502
   + y_51_s0_X080502 + y_60_s0_X090502 + y_70_s0_X100502 >= 24.5
 cons_c35_s1: y_30_s1_X050502 + y_36_s1_X060502 + y_43_s1_X070502
   + y_51_s1_X080502 + y_60_s1_X090502 + y_70_s1_X100502 >= 35
 cons_c35_s2: y_30_s2_X050502 + y_36_s2_X060502 + y_43_s2_X070502
   + y_51_s2_X080502 + y_60_s2_X090502 + y_70_s2_X100502 >= 45.5
 cons_c36_s0: y_35_s0_X060602 + y_42_s0_X070602 + y_50_s0_X080602
   + y_59_s0_X090602 + y_69_s0_X100602 >= 17.5
 cons_c36_s1: y_35_s1_X060602 + y_42_s1_X070602 + y_50_s1_X080602
   + y_59_s1_X090602 + y_69_s1_X100602 >= 27.5
 cons_c36_s2: y_35_s2_X060602 + y_42_s2_X070602 + y_50_s2_X080602
   + y_59_s2_X090602 + y_69_s2_X100602 >= 32.5
 cons_c37_s0: y_41_s0_X070702 + y_49_s0_X080702 + y_58_s0_X090702
   + y_68_s0_X100702 >= 10.5
 cons_c37_s1: y_41_s1_X070702 + y_49_s1_X080702 + y_58_s1_X090702
   + y_68_s1_X100702 >= 16.5
 cons_c37_s2: y_41_s2_X070702 + y_49_s2_X080702 + y_58_s2_X090702
   + y_68_s2_X100702 >= 19.5
 cons_c38_s0: y_48_s0_X080802 + y_57_s0_X090802 + y_67_s0_X100802 >= 8.75
 cons_c38_s1: y_48_s1_X080802 + y_57_s1_X090802 + y_67_s1_X100802 >= 13.75
 cons_c38_s2: y_48_s2_X080802 + y_57_s2_X090802 + y_67_s2_X100802 >= 16.25
 cons_c39_s0: y_56_s0_X090902 + y_66_s0_X100902 >= 8.75
 cons_c39_s1: y_56_s1_X090902 + y_66_s1_X100902 >= 13.75
 cons_c39_s2: y_56_s2_X090902 + y_66_s2_X100902 >= 16.25
 cons_c40_s0: y_65_s0_X101002 >= 3.5
 cons_c40_s1: y_65_s1_X101002 >= 5
 cons_c40_s2: y_65_s2_X101002 >= 6.5
 cons_c41_s0: - x_10_Y01JJ01 + x_20_X010101 - y_10_s0_Y01JJ02
   + y_20_s0_X010102 <= 0
 cons_c41_s1: - x_10_Y01JJ01 + x_20_X010101 - y_10_s1_Y01JJ02
   + y_20_s1_X010102 <= 0
 cons_c41_s2: - x_10_Y01JJ01 + x_20_X010101 - y_10_s2_Y01JJ02
   + y_20_s2_X010102 <= 0
 cons_c42_s0: - x_11_Y02JJ01 + x_21_X020201 + x_22_X020101
   - y_11_s0_Y02JJ02 + y_21_s0_X020202 + y_22_s0_X020102 <= 0
 cons_c42_s1: - x_11_Y02JJ01 + x_21_X020201 + x_22_X020101
   - y_11_s1_Y02JJ02 + y_21_s1_X020202 + y_22_s1_X020102 <= 0
 cons_c42_s2: - x_11_Y02JJ01 + x_21_X020201 + x_22_X020101
   - y_11_s2_Y02JJ02 + y_21_s2_X020202 + y_22_s2_X020102 <= 0
 cons_c43_s0: - x_12_Y03JJ01 + x_23_X030301 + x_24_X030201 + x_25_X030101
   - y_12_s0_Y03JJ02 + y_23_s0_X030302 + y_24_s0_X030202 + y_25_s0_X030102
   <= 0
 cons_c43_s1: - x_12_Y03JJ01 + x_23_X030301 + x_24_X030201 + x_25_X030101
   - y_12_s1_Y03JJ02 + y_23_s1_X030302 + y_24_s1_X030202 + y_25_s1_X030102
   <= 0
 cons_c43_s2: - x_12_Y03JJ01 + x_23_X030301 + x_24_X030201 + x_25_X030101
   - y_12_s2_Y03JJ02 + y_23_s2_X030302 + y_24_s2_X030202 + y_25_s2_X030102
   <= 0
 cons_c44_s0: - x_13_Y04JJ01 + x_26_X040401 + x_27_X040301 + x_28_X040201
   + x_29_X040101 - y_13_s0_Y04JJ02 + y_26_s0_X040402 + y_27_s0_X040302
   + y_28_s0_X040202 + y_29_s0_X040102 <= 0
 cons_c44_s1: - x_13_Y04JJ01 + x_26_X040401 + x_27_X040301 + x_28_X040201
   + x_29_X040101 - y_13_s1_Y04JJ02 + y_26_s1_X040402 + y_27_s1_X040302
   + y_28_s1_X040202 + y_29_s1_X040102 <= 0
 cons_c44_s2: - x_13_Y04JJ01 + x_26_X040401 + x_27_X040301 + x_28_X040201
   + x_29_X040101 - y_13_s2_Y04JJ02 + y_26_s2_X040402 + y_27_s2_X040302
   + y_28_s2_X040202 + y_29_s2_X040102 <= 0
 cons_c45_s0: - x_14_Y05JJ01 - x_15_Y06JJ01 + x_30_X050501 + x_31_X050401
   + x_32_X050301 + x_33_X050201 + x_34_X050101 - y_14_s0_Y05JJ02
   + y_30_s0_X050502 + y_31_s0_X050402 + y_32_s0_X050302 + y_33_s0_X050202
   + y_34_s0_X050102 <= 0
 cons_c45_s1: - x_14_Y05JJ01 - x_15_Y06JJ01 + x_30_X050501 + x_31_X050401
   + x_32_X050301 + x_33_X050201 + x_34_X050101 - y_14_s1_Y05JJ02
   + y_30_s1_X050502 + y_31_s1_X050402 + y_32_s1_X050302 + y_33_s1_X050202
   + y_34_s1_X050102 <= 0
 cons_c45_s2: - x_14_Y05JJ01 - x_15_Y06JJ01 + x_30_X050501 + x_31_X050401
   + x_32_X050301 + x_33_X050201 + x_34_X050101 - y_14_s2_Y05JJ02
   + y_30_s2_X050502 + y_31_s2_X050402 + y_32_s2_X050302 + y_33_s2_X050202
   + y_34_s2_X050102 <= 0
 cons_c46_s0: x_35_X060601 + x_36_X060501 + x_37_X060401 + x_38_X060301
   + x_39_X060201 + x_40_X060101 - y_15_s0_Y06JJ02 + y_35_s0_X060602
   + y_36_s0_X060502 + y_37_s0_X060402 + y_38_s0_X060302 + y_39_s0_X060202
   + y_40_s0_X060102 <= 0
 cons_c46_s1: x_35_X060601 + x_36_X060501 + x_37_X060401 + x_38_X060301
   + x_39_X060201 + x_40_X060101 - y_15_s1_Y06JJ02 + y_35_s1_X060602
   + y_36_s1_X060502 + y_37_s1_X060402 + y_38_s1_X060302 + y_39_s1_X060202
   + y_40_s1_X060102 <= 0
 cons_c46_s2: x_35_X060601 + x_36_X060501 + x_37_X060401 + x_38_X060301
   + x_39_X060201 + x_40_X060101 - y_15_s2_Y06JJ02 + y_35_s2_X060602
   + y_36_s2_X060502 + y_37_s2_X060402 + y_38_s2_X060302 + y_39_s2_X060202
   + y_40_s2_X060102 <= 0
 cons_c47_s0: - x_16_Y07JJ01 + x_41_X070701 + x_42_X070601 + x_43_X070501
   + x_44_X070401 + x_45_X070301 + x_46_X070201 + x_47_X070101
   - y_16_s0_Y07JJ02 + y_41_s0_X070702 + y_42_s0_X070602 + y_43_s0_X070502
   + y_44_s0_X070402 + y_45_s0_X070302 + y_46_s0_X070202 + y_47_s0_X070102
   <= 0
 cons_c47_s1: - x_16_Y07JJ01 + x_41_X070701 + x_42_X070601 + x_43_X070501
   + x_44_X070401 + x_45_X070301 + x_46_X070201 + x_47_X070101
   - y_16_s1_Y07JJ02 + y_41_s1_X070702 + y_42_s1_X070602 + y_43_s1_X070502
   + y_44_s1_X070402 + y_45_s1_X070302 + y_46_s1_X070202 + y_47_s1_X070102
   <= 0
 cons_c47_s2: - x_16_Y07JJ01 + x_41_X070701 + x_42_X070601 + x_43_X070501
   + x_44_X070401 + x_45_X070301 + x_46_X070201 + x_47_X070101
   - y_16_s2_Y07JJ02 + y_41_s2_X070702 + y_42_s2_X070602 + y_43_s2_X070502
   + y_44_s2_X070402 + y_45_s2_X070302 + y_46_s2_X070202 + y_47_s2_X070102
   <= 0
 cons_c48_s0: - x_17_Y08JJ01 + x_48_X080801 + x_49_X080701 + x_50_X080601
   + x_51_X080501 + x_52_X080401 + x_53_X080301 + x_54_X080201
   + x_55_X080101 - y_17_s0_Y08JJ02 + y_48_s0_X080802 + y_49_s0_X080702
   + y_50_s0_X080602 + y_51_s0_X080502 + y_52_s0_X080402 + y_53_s0_X080302
   + y_54_s0_X080202 + y_55_s0_X080102 <= 0
 cons_c48_s1: - x_17_Y08JJ01 + x_48_X080801 + x_49_X080701 + x_50_X080601
   + x_51_X080501 + x_52_X080401 + x_53_X080301 + x_54_X080201
   + x_55_X080101 - y_17_s1_Y08JJ02 + y_48_s1_X080802 + y_49_s1_X080702
   + y_50_s1_X080602 + y_51_s1_X080502 + y_52_s1_X080402 + y_53_s1_X080302
   + y_54_s1_X080202 + y_55_s1_X080102 <= 0
 cons_c48_s2: - x_17_Y08JJ01 + x_48_X080801 + x_49_X080701 + x_50_X080601
   + x_51_X080501 + x_52_X080401 + x_53_X080301 + x_54_X080201
   + x_55_X080101 - y_17_s2_Y08JJ02 + y_48_s2_X080802 + y_49_s2_X080702
   + y_50_s2_X080602 + y_51_s2_X080502 + y_52_s2_X080402 + y_53_s2_X080302
   + y_54_s2_X080202 + y_55_s2_X080102 <= 0
 cons_c49_s0: - x_18_Y09JJ01 + x_56_X090901 + x_57_X090801 + x_58_X090701
   + x_59_X090601 + x_60_X090501 + x_61_X090401 + x_62_X090301
   + x_63_X090201 + x_64_X090101 - y_18_s0_Y09JJ02 + y_56_s0_X090902
   + y_57_s0_X090802 + y_58_s0_X090702 + y_59_s0_X090602 + y_60_s0_X090502
   + y_61_s0_X090402 + y_62_s0_X090302 + y_63_s0_X090202 + y_64_s0_X090102
   <= 0
 cons_c49_s1: - x_18_Y09JJ01 + x_56_X090901 + x_57_X090801 + x_58_X090701
   + x_59_X090601 + x_60_X090501 + x_61_X090401 + x_62_X090301
   + x_63_X090201 + x_64_X090101 - y_18_s1_Y09JJ02 + y_56_s1_X090902
   + y_57_s1_X090802 + y_58_s1_X090702 + y_59_s1_X090602 + y_60_s1_X090502
   + y_61_s1_X090402 + y_62_s1_X090302 + y_63_s1_X090202 + y_64_s1_X090102
   <= 0
 cons_c49_s2: - x_18_Y09JJ01 + x_56_X090901 + x_57_X090801 + x_58_X090701
   + x_59_X090601 + x_60_X090501 + x_61_X090401 + x_62_X090301
   + x_63_X090201 + x_64_X090101 - y_18_s2_Y09JJ02 + y_56_s2_X090902
   + y_57_s2_X090802 + y_58_s2_X090702 + y_59_s2_X090602 + y_60_s2_X090502
   + y_61_s2_X090402 + y_62_s2_X090302 + y_63_s2_X090202 + y_64_s2_X090102
   <= 0
 cons_c50_s0: - x_19_Y10JJ01 + x_65_X101001 + x_66_X100901 + x_67_X100801
   + x_68_X100701 + x_69_X100601 + x_70_X100501 + x_71_X100401
   + x_72_X100301 + x_73_X100201 + x_74_X100101 - y_19_s0_Y10JJ02
   + y_65_s0_X101002 + y_66_s0_X100902 + y_67_s0_X100802 + y_68_s0_X100702
   + y_69_s0_X100602 + y_70_s0_X100502 + y_71_s0_X100402 + y_72_s0_X100302
   + y_73_s0_X100202 + y_74_s0_X100102 <= 0
 cons_c50_s1: - x_19_Y10JJ01 + x_65_X101001 + x_66_X100901 + x_67_X100801
   + x_68_X100701 + x_69_X100601 + x_70_X100501 + x_71_X100401
   + x_72_X100301 + x_73_X100201 + x_74_X100101 - y_19_s1_Y10JJ02
   + y_65_s1_X101002 + y_66_s1_X100902 + y_67_s1_X100802 + y_68_s1_X100702
   + y_69_s1_X100602 + y_70_s1_X100502 + y_71_s1_X100402 + y_72_s1_X100302
   + y_73_s1_X100202 + y_74_s1_X100102 <= 0
 cons_c50_s2: - x_19_Y10JJ01 + x_65_X101001 + x_66_X100901 + x_67_X100801
   + x_68_X100701 + x_69_X100601 + x_70_X100501 + x_71_X100401
   + x_72_X100301 + x_73_X100201 + x_74_X100101 - y_19_s2_Y10JJ02
   + y_65_s2_X101002 + y_66_s2_X100902 + y_67_s2_X100802 + y_68_s2_X100702
   + y_69_s2_X100602 + y_70_s2_X100502 + y_71_s2_X100402 + y_72_s2_X100302
   + y_73_s2_X100202 + y_74_s2_X100102 <= 0
 cons_c51_s0: - 201 z_0_s0_Z01JJ02 + y_10_s0_Y01JJ02 <= 0
 cons_c51_s1: - 201 z_0_s1_Z01JJ02 + y_10_s1_Y01JJ02 <= 0
 cons_c51_s2: - 201 z_0_s2_Z01JJ02 + y_10_s2_Y01JJ02 <= 0
 cons_c52_s0: - 201 z_1_s0_Z02JJ02 + y_11_s0_Y02JJ02 <= 0
 cons_c52_s1: - 201 z_1_s1_Z02JJ02 + y_11_s1_Y02JJ02 <= 0
 cons_c52_s2: - 201 z_1_s2_Z02JJ02 + y_11_s2_Y02JJ02 <= 0
 cons_c53_s0: - 201 z_2_s0_Z03JJ02 + y_12_s0_Y03JJ02 <= 0
 cons_c53_s1: - 201 z_2_s1_Z03JJ02 + y_12_s1_Y03JJ02 <= 0
 cons_c53_s2: - 201 z_2_s2_Z03JJ02 + y_12_s2_Y03JJ02 <= 0
 cons_c54_s0: - 201 z_3_s0_Z04JJ02 + y_13_s0_Y04JJ02 <= 0
 cons_c54_s1: - 201 z_3_s1_Z04JJ02 + y_13_s1_Y04JJ02 <= 0
 cons_c54_s2: - 201 z_3_s2_Z04JJ02 + y_13_s2_Y04JJ02 <= 0
 cons_c55_s0: - 201 z_4_s0_Z05JJ02 + y_14_s0_Y05JJ02 <= 0
 cons_c55_s1: - 201 z_4_s1_Z05JJ02 + y_14_s1_Y05JJ02 <= 0
 cons_c55_s2: - 201 z_4_s2_Z05JJ02 + y_14_s2_Y05JJ02 <= 0
 cons_c56_s0: - 201 z_5_s0_Z06JJ02 + y_15_s0_Y06JJ02 <= 0
 cons_c56_s1: - 201 z_5_s1_Z06JJ02 + y_15_s1_Y06JJ02 <= 0
 cons_c56_s2: - 201 z_5_s2_Z06JJ02 + y_15_s2_Y06JJ02 <= 0
 cons_c57_s0: - 201 z_6_s0_Z07JJ02 + y_16_s0_Y07JJ02 <= 0
 cons_c57_s1: - 201 z_6_s1_Z07JJ02 + y_16_s1_Y07JJ02 <= 0
 cons_c57_s2: - 201 z_6_s2_Z07JJ02 + y_16_s2_Y07JJ02 <= 0
 cons_c58_s0: - 201 z_7_s0_Z08JJ02 + y_17_s0_Y08JJ02 <= 0
 cons_c58_s1: - 201 z_7_s1_Z08JJ02 + y_17_s1_Y08JJ02 <= 0
 cons_c58_s2: - 201 z_7_s2_Z08JJ02 + y_17_s2_Y08JJ02 <= 0
 cons_c59_s0: - 201 z_8_s0_Z09JJ02 + y_18_s0_Y09JJ02 <= 0
 cons_c59_s1: - 201 z_8_s1_Z09JJ02 + y_18_s1_Y09JJ02 <= 0
 cons_c59_s2: - 201 z_8_s2_Z09JJ02 + y_18_s2_Y09JJ02 <= 0
 cons_c60_s0: - 201 z_9_s0_Z10JJ02 + y_19_s0_Y10JJ02 <= 0
 cons_c60_s1: - 201 z_9_s1_Z10JJ02 + y_19_s1_Y10JJ02 <= 0
 cons_c60_s2: - 201 z_9_s2_Z10JJ02 + y_19_s2_Y10JJ02 <= 0
 cons_c61_s0: y_10_s0_Y01JJ02 + y_11_s0_Y02JJ02 + y_12_s0_Y03JJ02
   + y_13_s0_Y04JJ02 + y_14_s0_Y05JJ02 + y_15_s0_Y06JJ02 + y_16_s0_Y07JJ02
   + y_17_s0_Y08JJ02 + y_18_s0_Y09JJ02 + y_19_s0_Y10JJ02 <= 200
 cons_c61_s1: y_10_s1_Y01JJ02 + y_11_s1_Y02JJ02 + y_12_s1_Y03JJ02
   + y_13_s1_Y04JJ02 + y_14_s1_Y05JJ02 + y_15_s1_Y06JJ02 + y_16_s1_Y07JJ02
   + y_17_s1_Y08JJ02 + y_18_s1_Y09JJ02 + y_19_s1_Y10JJ02 <= 200
 cons_c61_s2: y_10_s2_Y01JJ02 + y_11_s2_Y02JJ02 + y_12_s2_Y03JJ02
   + y_13_s2_Y04JJ02 + y_14_s2_Y05JJ02 + y_15_s2_Y06JJ02 + y_16_s2_Y07JJ02
   + y_17_s2_Y08JJ02 + y_18_s2_Y09JJ02 + y_19_s2_Y10JJ02 <= 200
Bounds
Binaries
 z_0_Z01JJ01 z_1_Z02JJ01 z_2_Z03JJ01 z_3_Z04JJ01 z_4_Z05JJ01 z_5_Z06JJ01
 z_6_Z07JJ01 z_7_Z08JJ01 z_8_Z09JJ01 z_9_Z10JJ01 z_0_s0_Z01JJ02
 z_0_s1_Z01JJ02 z_0_s2_Z01JJ02 z_1_s0_Z02JJ02 z_1_s1_Z02JJ02 z_1_s2_Z02JJ02
 z_2_s0_Z03JJ02 z_2_s1_Z03JJ02 z_2_s2_Z03JJ02 z_3_s0_Z04JJ02 z_3_s1_Z04JJ02
 z_3_s2_Z04JJ02 z_4_s0_Z05JJ02 z_4_s1_Z05JJ02 z_4_s2_Z05JJ02 z_5_s0_Z06JJ02
 z_5_s1_Z06JJ02 z_5_s2_Z06JJ02 z_6_s0_Z07JJ02 z_6_s1_Z07JJ02 z_6_s2_Z07JJ02
 z_7_s0_Z08JJ02 z_7_s1_Z08JJ02 z_7_s2_Z08JJ02 z_8_s0_Z09JJ02 z_8_s1_Z09JJ02
 z_8_s2_Z09JJ02 z_9_s0_Z10JJ02 z_9_s1_Z10JJ02 z_9_s2_Z10JJ02
Generals
 x_10_Y01JJ01 x_11_Y02JJ01 x_12_Y03JJ01 x_13_Y04JJ01 x_14_Y05JJ01
 x_15_Y06JJ01 x_16_Y07JJ01 x_17_Y08JJ01 x_18_Y09JJ01 x_19_Y10JJ01
 x_20_X010101 x_21_X020201 x_22_X020101 x_23_X030301 x_24_X030201
 x_25_X030101 x_26_X040401 x_27_X040301 x_28_X040201 x_29_X040101
 x_30_X050501 x_31_X050401 x_32_X050301 x_33_X050201 x_34_X050101
 x_35_X060601 x_36_X060501 x_37_X060401 x_38_X060301 x_39_X060201
 x_40_X060101 x_41_X070701 x_42_X070601 x_43_X070501 x_44_X070401
 x_45_X070301 x_46_X070201 x_47_X070101 x_48_X080801 x_49_X080701
 x_50_X080601 x_51_X080501 x_52_X080401 x_53_X080301 x_54_X080201
 x_55_X080101 x_56_X090901 x_57_X090801 x_58_X090701 x_59_X090601
 x_60_X090501 x_61_X090401 x_62_X090301 x_63_X090201 x_64_X090101
 x_65_X101001 x_66_X100901 x_67_X100801 x_68_X100701 x_69_X100601
 x_70_X100501 x_71_X100401 x_72_X100301 x_73_X100201 x_74_X100101
 y_10_s0_Y01JJ02 y_10_s1_Y01JJ02 y_10_s2_Y01JJ02 y_11_s0_Y02JJ02
 y_11_s1_Y02JJ02 y_11_s2_Y02JJ02 y_12_s0_Y03JJ02 y_12_s1_Y03JJ02
 y_12_s2_Y03JJ02 y_13_s0_Y04JJ02 y_13_s1_Y04JJ02 y_13_s2_Y04JJ02
 y_14_s0_Y05JJ02 y_14_s1_Y05JJ02 y_14_s2_Y05JJ02 y_15_s0_Y06JJ02
 y_15_s1_Y06JJ02 y_15_s2_Y06JJ02 y_16_s0_Y07JJ02 y_16_s1_Y07JJ02
 y_16_s2_Y07JJ02 y_17_s0_Y08JJ02 y_17_s1_Y08JJ02 y_17_s2_Y08JJ02
 y_18_s0_Y09JJ02 y_18_s1_Y09JJ02 y_18_s2_Y09JJ02 y_19_s0_Y10JJ02
 y_19_s1_Y10JJ02 y_19_s2_Y10JJ02 y_20_s0_X010102 y_20_s1_X010102
 y_20_s2_X010102 y_21_s0_X020202 y_21_s1_X020202 y_21_s2_X020202
 y_22_s0_X020102 y_22_s1_X020102 y_22_s2_X020102 y_23_s0_X030302
 y_23_s1_X030302 y_23_s2_X030302 y_24_s0_X030202 y_24_s1_X030202
 y_24_s2_X030202 y_25_s0_X030102 y_25_s1_X030102 y_25_s2_X030102
 y_26_s0_X040402 y_26_s1_X040402 y_26_s2_X040402 y_27_s0_X040302
 y_27_s1_X040302 y_27_s2_X040302 y_28_s0_X040202 y_28_s1_X040202
 y_28_s2_X040202 y_29_s0_X040102 y_29_s1_X040102 y_29_s2_X040102
 y_30_s0_X050502 y_30_s1_X050502 y_30_s2_X050502 y_31_s0_X050402
 y_31_s1_X050402 y_31_s2_X050402 y_32_s0_X050302 y_32_s1_X050302
 y_32_s2_X050302 y_33_s0_X050202 y_33_s1_X050202 y_33_s2_X050202
 y_34_s0_X050102 y_34_s1_X050102 y_34_s2_X050102 y_35_s0_X060602
 y_35_s1_X060602 y_35_s2_X060602 y_36_s0_X060502 y_36_s1_X060502
 y_36_s2_X060502 y_37_s0_X060402 y_37_s1_X060402 y_37_s2_X060402
 y_38_s0_X060302 y_38_s1_X060302 y_38_s2_X060302 y_39_s0_X060202
 y_39_s1_X060202 y_39_s2_X060202 y_40_s0_X060102 y_40_s1_X060102
 y_40_s2_X060102 y_41_s0_X070702 y_41_s1_X070702 y_41_s2_X070702
 y_42_s0_X070602 y_42_s1_X070602 y_42_s2_X070602 y_43_s0_X070502
 y_43_s1_X070502 y_43_s2_X070502 y_44_s0_X070402 y_44_s1_X070402
 y_44_s2_X070402 y_45_s0_X070302 y_45_s1_X070302 y_45_s2_X070302
 y_46_s0_X070202 y_46_s1_X070202 y_46_s2_X070202 y_47_s0_X070102
 y_47_s1_X070102 y_47_s2_X070102 y_48_s0_X080802 y_48_s1_X080802
 y_48_s2_X080802 y_49_s0_X080702 y_49_s1_X080702 y_49_s2_X080702
 y_50_s0_X080602 y_50_s1_X080602 y_50_s2_X080602 y_51_s0_X080502
 y_51_s1_X080502 y_51_s2_X080502 y_52_s0_X080402 y_52_s1_X080402
 y_52_s2_X080402 y_53_s0_X080302 y_53_s1_X080302 y_53_s2_X080302
 y_54_s0_X080202 y_54_s1_X080202 y_54_s2_X080202 y_55_s0_X080102
 y_55_s1_X080102 y_55_s2_X080102 y_56_s0_X090902 y_56_s1_X090902
 y_56_s2_X090902 y_57_s0_X090802 y_57_s1_X090802 y_57_s2_X090802
 y_58_s0_X090702 y_58_s1_X090702 y_58_s2_X090702 y_59_s0_X090602
 y_59_s1_X090602 y_59_s2_X090602 y_60_s0_X090502 y_60_s1_X090502
 y_60_s2_X090502 y_61_s0_X090402 y_61_s1_X090402 y_61_s2_X090402
 y_62_s0_X090302 y_62_s1_X090302 y_62_s2_X090302 y_63_s0_X090202
 y_63_s1_X090202 y_63_s2_X090202 y_64_s0_X090102 y_64_s1_X090102
 y_64_s2_X090102 y_65_s0_X101002 y_65_s1_X101002 y_65_s2_X101002
 y_66_s0_X100902 y_66_s1_X100902 y_66_s2_X100902 y_67_s0_X100802
 y_67_s1_X100802 y_67_s2_X100802 y_68_s0_X100702 y_68_s1_X100702
 y_68_s2_X100702 y_69_s0_X100602 y_69_s1_X100602 y_69_s2_X100602
 y_70_s0_X100502 y_70_s1_X100502 y_70_s2_X100502 y_71_s0_X100402
 y_71_s1_X100402 y_71_s2_X100402 y_72_s0_X100302 y_72_s1_X100302
 y_72_s2_X100302 y_73_s0_X100202 y_73_s1_X100202 y_73_s2_X100202
 y_74_s0_X100102 y_74_s1_X100102 y_74_s2_X100102
End
